49 1 46 23 14 87 27 1 101 100 1 9 36 95 71 1 63 13 43 82 1 81 7 6 61 1 53 90 58 84 1 10 93 50 4 1 41 64 45 75 1 17 54 92 38 1 96 20 66 25 1 8 65 98 5 1 76 52 22 48 1 19 39 2 97 1 24 11 86 74 1 77 68 42 3 1 26 89 40 12 1 73 70 32 91 1 56 44 60 72 1 28 51 15 18 1 94 78 29 16 1 59 31 85 79 1 35 67 37 47 1 34 62 21 83 1 33 57 55 80 1 30 69 88 99